FILENAME:   /home/mcs001/s132664/testsets/IP/miplib2017/circ10-3.mps.gz
SETTINGS:   settings_final_nopeek_norelabel_extend_norestarts
TIMELIMIT:  7200
OUTPUTNAME: final_miplib_symretope_if_extended_generating_set_cpx_v802__settings_final_nopeek_norelabel_extend_norestarts__4__
BINNAME:    bin/sbcs.linux.x86_64.gnu.opt.cpx
BASENAME:   circ10-3.mps.gz
SEED:       4
@01 /home/mcs001/s132664/testsets/IP/miplib2017/circ10-3.mps.gz ===========
@02 circ10-3.mps.gz
@03 1686665952
SCIP version 8.0.2 [precision: 8 byte] [memory: block] [mode: optimized] [LP solver: CPLEX 20.1.0.0] [GitHash: 5f0473c]
Copyright (C) 2002-2022 Konrad-Zuse-Zentrum fuer Informationstechnik Berlin (ZIB)

Symretope propagation methods - (c) Jasper van Doornmalen, Christopher Hojny.
[GitHash: 2fd0484]

reading parameter file <../settings/settings_final_nopeek_norelabel_extend_norestarts.set> ...

Changed settings:
limits/time = 7200
limits/restarts = 0
misc/usesymmetry = 1
randomization/randomseedshift = 4
constraints/orbisack/sepafreq = -1
constraints/symresack/sepafreq = -1
propagating/symmetry/addsymresacks = TRUE
propagating/symmetry/detectsubgroups = FALSE
propagating/symmetry/relabelsymretopes = 0
propagating/symmetry/extendgenerators = TRUE
propagating/symmetry/ofsymcomptiming = 0
constraints/symretope/sepafreq = -1
constraints/symretope/peek = FALSE


solving problem ...

original problem has 2700 variables (2700 bin, 0 int, 0 impl, 0 cont) and 42620 constraints
presolving:
(round 1, exhaustive) 0 del vars, 0 del conss, 0 add conss, 0 chg bounds, 0 chg sides, 0 chg coeffs, 42620 upgd conss, 0 impls, 3960 clqs
(round 2, medium)     0 del vars, 0 del conss, 0 add conss, 0 chg bounds, 43200 chg sides, 43200 chg coeffs, 42620 upgd conss, 0 impls, 3960 clqs
(round 3, exhaustive) 0 del vars, 0 del conss, 0 add conss, 0 chg bounds, 43200 chg sides, 64800 chg coeffs, 42620 upgd conss, 0 impls, 3960 clqs
   (1.7s) probing: 51/2700 (1.9%) - 0 fixings, 0 aggregations, 0 implications, 0 bound changes
   (1.7s) probing aborted: 50/50 successive totally useless probings
   (2.2s) symmetry computation started: requiring (bin +, int +, cont +), (fixed: bin -, int -, cont -)
   (2.5s) symmetry computation finished: 2 generators found (max: 1500, log10 of symmetry group size: 1.3)
presolving (4 rounds: 4 fast, 4 medium, 3 exhaustive):
 0 deleted vars, 0 deleted constraints, 3 added constraints, 0 tightened bounds, 0 added holes, 43200 changed sides, 64800 changed coefficients
 0 implications, 3960 cliques
presolved problem has 2700 variables (2700 bin, 0 int, 0 impl, 0 cont) and 42623 constraints
  21770 constraints of type <knapsack>
   3960 constraints of type <setppc>
      2 constraints of type <orbisack>
      1 constraints of type <symretope>
  16890 constraints of type <logicor>
transformed objective value is always integral (scale: 1)
Presolving Time: 2.41

 time | node  | left  |LP iter|LP it/n|mem/heur|mdpt |vars |cons |rows |cuts |sepa|confs|strbr|  dualbound   | primalbound  |  gap   | compl. 
  9.9s|     1 |     0 |  8620 |     - |   399M |   0 |2700 |  42k|  42k|   0 |  0 |  69 |   0 | 1.400000e+02 |      --      |    Inf | unknown
  146s|     1 |     0 | 35108 |     - |   404M |   0 |2700 |  42k|  42k|  15 |  1 |  71 |   0 | 1.400000e+02 |      --      |    Inf | unknown
  191s|     1 |     0 | 44727 |     - |   408M |   0 |2700 |  42k|  42k|  23 |  2 |  74 |   0 | 1.400000e+02 |      --      |    Inf | unknown
  237s|     1 |     0 | 54508 |     - |   413M |   0 |2700 |  42k|  42k|  30 |  3 |  75 |   0 | 1.400000e+02 |      --      |    Inf | unknown
  287s|     1 |     0 | 65308 |     - |   417M |   0 |2700 |  42k|  42k|  40 |  4 |  78 |   0 | 1.400000e+02 |      --      |    Inf | unknown
  335s|     1 |     0 | 75570 |     - |   422M |   0 |2700 |  42k|  42k|  49 |  5 |  79 |   0 | 1.400000e+02 |      --      |    Inf | unknown
  387s|     1 |     0 | 86889 |     - |   427M |   0 |2700 |  42k|  42k|  61 |  6 |  80 |   0 | 1.400000e+02 |      --      |    Inf | unknown
  436s|     1 |     0 | 97406 |     - |   431M |   0 |2700 |  42k|  42k|  74 |  7 |  90 |   0 | 1.400000e+02 |      --      |    Inf | unknown
  484s|     1 |     0 |107792 |     - |   436M |   0 |2700 |  42k|  42k|  84 |  8 |  92 |   0 | 1.400000e+02 |      --      |    Inf | unknown
  529s|     1 |     0 |117528 |     - |   440M |   0 |2700 |  42k|  42k|  95 |  9 |  94 |   0 | 1.400000e+02 |      --      |    Inf | unknown
  578s|     1 |     0 |127792 |     - |   445M |   0 |2700 |  42k|  42k| 106 | 10 |  97 |   0 | 1.400000e+02 |      --      |    Inf | unknown
  619s|     1 |     0 |138101 |     - |   450M |   0 |2700 |  42k|  42k| 117 | 11 |  99 |   0 | 1.400000e+02 |      --      |    Inf | unknown
 1481s|     1 |     2 |319556 |     - |   451M |   0 |2700 |  42k|  42k| 117 | 11 | 123 |  21 | 1.400000e+02 |      --      |    Inf | unknown
 6616s|   100 |   101 |  1369k|12443.0 |   495M |  17 |2700 |  42k|  42k| 249 |  1 | 275 | 728 | 1.400000e+02 |      --      |    Inf | unknown

SCIP Status        : solving was interrupted [time limit reached]
Solving Time (sec) : 7200.01
Solving Nodes      : 128
Primal Bound       : +1.00000000000000e+20 (0 solutions)
Dual Bound         : +1.40000000000000e+02
Gap                : infinite
SCIP Status        : solving was interrupted [time limit reached]
Total Time         :    7200.27
  solving          :    7200.01
  presolving       :       2.41 (included in solving)
  reading          :       0.26
  copying          :       0.16 (2 #copies) (minimal 0.08, maximal 0.08, average 0.08)
Original Problem   :
  Problem name     : circ10-3
  Variables        : 2700 (2700 binary, 0 integer, 0 implicit integer, 0 continuous)
  Constraints      : 42620 initial, 42620 maximal
  Objective        : minimize, 900 non-zeros (abs.min = 1, abs.max = 5)
Presolved Problem  :
  Problem name     : t_circ10-3
  Variables        : 2700 (2700 binary, 0 integer, 0 implicit integer, 0 continuous)
  Constraints      : 42623 initial, 42696 maximal
  Objective        : minimize, 900 non-zeros (abs.min = 1, abs.max = 5)
  Nonzeros         : 336944 constraint, 13222 clique table
Presolvers         :   ExecTime  SetupTime  Calls  FixedVars   AggrVars   ChgTypes  ChgBounds   AddHoles    DelCons    AddCons   ChgSides   ChgCoefs
  boundshift       :       0.00       0.00      0          0          0          0          0          0          0          0          0          0
  convertinttobin  :       0.00       0.00      0          0          0          0          0          0          0          0          0          0
  domcol           :       0.04       0.00      1          0          0          0          0          0          0          0          0          0
  dualagg          :       0.00       0.00      0          0          0          0          0          0          0          0          0          0
  dualcomp         :       0.00       0.00      0          0          0          0          0          0          0          0          0          0
  dualinfer        :       0.00       0.00      0          0          0          0          0          0          0          0          0          0
  dualsparsify     :       0.45       0.00      1          0          0          0          0          0          0          0          0          0
  gateextraction   :       0.02       0.00      2          0          0          0          0          0          0          0          0          0
  implics          :       0.00       0.00      4          0          0          0          0          0          0          0          0          0
  inttobinary      :       0.00       0.00      0          0          0          0          0          0          0          0          0          0
  qpkktref         :       0.00       0.00      0          0          0          0          0          0          0          0          0          0
  redvub           :       0.00       0.00      0          0          0          0          0          0          0          0          0          0
  sparsify         :       0.17       0.00      1          0          0          0          0          0          0          0          0          0
  stuffing         :       0.00       0.00      0          0          0          0          0          0          0          0          0          0
  trivial          :       0.00       0.00      4          0          0          0          0          0          0          0          0          0
  tworowbnd        :       0.00       0.00      0          0          0          0          0          0          0          0          0          0
  dualfix          :       0.00       0.00      4          0          0          0          0          0          0          0          0          0
  genvbounds       :       0.00       0.00      0          0          0          0          0          0          0          0          0          0
  probing          :       0.51       0.00      1          0          0          0          0          0          0          0          0          0
  pseudoobj        :       0.00       0.00      0          0          0          0          0          0          0          0          0          0
  symmetry         :       0.30       0.00      1          0          0          0          0          0          0          3          0          0
  vbounds          :       0.00       0.00      1          0          0          0          0          0          0          0          0          0
  knapsack         :       0.54       0.00      8          0          0          0          0          0          0          0      43200      64800
  setppc           :       0.01       0.00      7          0          0          0          0          0          0          0          0          0
  linear           :       0.23       0.04      2          0          0          0          0          0          0          0          0          0
  orbisack         :       0.00       0.00      0          0          0          0          0          0          0          0          0          0
  symretope        :       0.00       0.00      0          0          0          0          0          0          0          0          0          0
  logicor          :       0.05       0.01      7          0          0          0          0          0          0          0          0          0
  benders          :       0.00       0.00      0          0          0          0          0          0          0          0          0          0
  components       :       0.03       0.00      1          0          0          0          0          0          0          0          0          0
  root node        :          -          -      -         10          -          -         10          -          -          -          -          -
Constraints        :     Number  MaxNumber  #Separate #Propagate    #EnfoLP    #EnfoRelax  #EnfoPS    #Check   #ResProp    Cutoffs    DomReds       Cuts    Applied      Conss   Children
  benderslp        :          0          0          0          0        128          0          0          7          0          0          0          0          0          0          0
  integral         :          0          0          0          0        128          0          0          7          0          0          3          0          0          9        254
  knapsack         :      21770+     21772         11      10616          0          0          0          3        604         10        537          0          0          0          0
  setppc           :       3960+      3961         11      10606          0          0          0          1       2076         44       3793          0          0          0          0
  linear           :          0+         1          0       1012          0          0          0          0          0          1          0          0          0          0          0
  orbisack         :          2          2          0         15          0          0          0          0         12          1          0          0          0          0          0
  symretope        :          1          1          0        265          0          0          0          0         11          2          0          0          0          0          0
  logicor          :      16890+     16963         11       4777          0          0          0          0        657          6        381          1          1          0          0
  benders          :          0          0          0          0          0          0          0          0          0          0          0          0          0          0          0
  countsols        :          0          0          0          0          0          0          0          0          0          0          0          0          0          0          0
  components       :          0          0          0          0          0          0          0          0          0          0          0          0          0          0          0
Constraint Timings :  TotalTime  SetupTime   Separate  Propagate     EnfoLP     EnfoPS     EnfoRelax   Check    ResProp    SB-Prop
  benderslp        :       0.00       0.00       0.00       0.00       0.00       0.00       0.00       0.00       0.00       0.00
  integral         :    2063.54       0.00       0.00       0.00    2063.54       0.00       0.00       0.00       0.00       0.00
  knapsack         :       2.59       0.00       0.61       1.12       0.00       0.00       0.00       0.00       0.00       0.86
  setppc           :       1.85       0.00       0.01       0.84       0.00       0.00       0.00       0.00       0.00       1.00
  linear           :       0.04       0.04       0.00       0.00       0.00       0.00       0.00       0.00       0.00       0.00
  orbisack         :       0.00       0.00       0.00       0.00       0.00       0.00       0.00       0.00       0.00       0.00
  symretope        :       0.01       0.00       0.00       0.01       0.00       0.00       0.00       0.00       0.00       0.00
  logicor          :       0.33       0.01       0.07       0.12       0.00       0.00       0.00       0.00       0.00       0.14
  benders          :       0.00       0.00       0.00       0.00       0.00       0.00       0.00       0.00       0.00       0.00
  countsols        :       0.00       0.00       0.00       0.00       0.00       0.00       0.00       0.00       0.00       0.00
  components       :       0.00       0.00       0.00       0.00       0.00       0.00       0.00       0.00       0.00       0.00
Propagators        : #Propagate   #ResProp    Cutoffs    DomReds
  dualfix          :          2          0          0          0
  genvbounds       :          0          0          0          0
  nlobbt           :          0          0          0          0
  obbt             :          0          0          0          0
  probing          :          0          0          0          0
  pseudoobj        :        535          0          0          0
  redcost          :         13          0          0          0
  rootredcost      :          1          0          0          0
  symmetry         :          0          0          0          0
  vbounds          :       4900          0          0          0
Propagator Timings :  TotalTime  SetupTime   Presolve  Propagate    ResProp    SB-Prop
  dualfix          :       0.00       0.00       0.00       0.00       0.00       0.00
  genvbounds       :       0.00       0.00       0.00       0.00       0.00       0.00
  nlobbt           :       0.00       0.00       0.00       0.00       0.00       0.00
  obbt             :       0.00       0.00       0.00       0.00       0.00       0.00
  probing          :       0.51       0.00       0.51       0.00       0.00       0.00
  pseudoobj        :       0.00       0.00       0.00       0.00       0.00       0.00
  redcost          :       0.00       0.00       0.00       0.00       0.00       0.00
  rootredcost      :       0.00       0.00       0.00       0.00       0.00       0.00
  symmetry         :       0.30       0.00       0.30       0.00       0.00       0.00
  vbounds          :       0.01       0.00       0.00       0.00       0.00       0.00
Orbital fixing     :
  vars fixed to 0  :          0
  vars fixed to 1  :          0
Conflict Analysis  :       Time      Calls    Success    DomReds  Conflicts   Literals    Reconvs ReconvLits   Dualrays   Nonzeros   LP Iters   (pool size: [10000,10000])
  propagation      :       0.00         56         56          -        418       34.7         24        8.4          -          -          -
  infeasible LP    :       0.01          7          7          -         74       54.0          2        8.0          7       69.9          0
  bound exceed. LP :       0.00          0          0          -          0        0.0          0        0.0          0        0.0          0
  strong branching :       0.00          0          0          -          0        0.0          0        0.0          -          -          0
  pseudo solution  :       0.00          0          0          -          0        0.0          0        0.0          -          -          -
  applied globally :       0.00          -          -          0        327       25.0          -          -          7          -          -
  applied locally  :          -          -          -          0          0        0.0          -          -          0          -          -
Separators         :   ExecTime  SetupTime      Calls  RootCalls    Cutoffs    DomReds  FoundCuts ViaPoolAdd  DirectAdd    Applied ViaPoolApp  DirectApp      Conss
  cut pool         :       0.01          -         81         21          -          -        890        404          -          -          -          -          -    (maximal pool size:        890)
  aggregation      :       0.30       0.00         41         11          0          0          0          0          0          0          0          0          0
  > cmir           :          -          -          -          -          -          -          -          0          0          0          0          0          -
  > flowcover      :          -          -          -          -          -          -          -          0          0          0          0          0          -
  > knapsackcover  :          -          -          -          -          -          -          -          0          0          0          0          0          -
  cgmip            :       0.00       0.00          0          0          0          0          0          0          0          0          0          0          0
  clique           :       0.10       0.00         11         11          0          0         66         85          0         74         74          0          0
  closecuts        :       0.00       0.00          0          0          0          0          0          0          0          0          0          0          0
  convexproj       :       0.00       0.00          0          0          0          0          0          0          0          0          0          0          0
  disjunctive      :       0.00       0.00          0          0          0          0          0          0          0          0          0          0          0
  eccuts           :       0.00       0.00          0          0          0          0          0          0          0          0          0          0          0
  gauge            :       0.00       0.00          0          0          0          0          0          0          0          0          0          0          0
  gomory           :     217.33       0.00         40         10          0          0        639        108          0         31         31          0          0
  > gomorymi       :          -          -          -          -          -          -          -         29          0         13         13          0          -
  > strongcg       :          -          -          -          -          -          -          -         79          0         18         18          0          -
  impliedbounds    :       0.02       0.00         41         11          0          9          0          0          0          0          0          0          0
  interminor       :       0.00       0.00          0          0          0          0          0          0          0          0          0          0          0
  intobj           :       0.00       0.00          0          0          0          0          0          0          0          0          0          0          0
  mcf              :       0.04       0.00          1          1          0          0          0          0          0          0          0          0          0
  minor            :       0.00       0.00          0          0          0          0          0          0          0          0          0          0          0
  mixing           :       0.00       0.00          0          0          0          0          0          0          0          0          0          0          0
  oddcycle         :       0.00       0.00          0          0          0          0          0          0          0          0          0          0          0
  rapidlearning    :       0.00       0.00          0          0          0          0          0          0          0          0          0          0          0
  rlt              :       0.00       0.00         10         10          0          0          0          0          0          0          0          0          0
  zerohalf         :       0.90       0.00         41         11          0          0        185        211          0        182        182          0          0
Cutselectors       :   ExecTime  SetupTime      Calls  RootCalls   Selected     Forced   Filtered  RootSelec   RootForc   RootFilt 
  hybrid           :       0.00       0.00         41         11        288          0        117        117          0         41
Pricers            :   ExecTime  SetupTime      Calls       Vars
  problem variables:       0.00          -          0          0
Branching Rules    :   ExecTime  SetupTime   BranchLP  BranchExt   BranchPS    Cutoffs    DomReds       Cuts      Conss   Children
  allfullstrong    :       0.00       0.00          0          0          0          0          0          0          0          0
  cloud            :       0.00       0.00          0          0          0          0          0          0          0          0
  distribution     :       0.00       0.00          0          0          0          0          0          0          0          0
  fullstrong       :       0.00       0.00          0          0          0          0          0          0          0          0
  inference        :       0.00       0.00          0          0          0          0          0          0          0          0
  leastinf         :       0.00       0.00          0          0          0          0          0          0          0          0
  lookahead        :       0.00       0.00          0          0          0          0          0          0          0          0
  mostinf          :       0.00       0.00          0          0          0          0          0          0          0          0
  multaggr         :       0.00       0.00          0          0          0          0          0          0          0          0
  nodereopt        :       0.00       0.00          0          0          0          0          0          0          0          0
  pscost           :       0.00       0.00          0          0          0          0          0          0          0          0
  random           :       0.00       0.00          0          0          0          0          0          0          0          0
  relpscost        :    2063.54       0.00        128          0          0          0          3          0          9        254
  vanillafullstrong:       0.00       0.00          0          0          0          0          0          0          0          0
Primal Heuristics  :   ExecTime  SetupTime      Calls      Found       Best
  LP solutions     :       0.00          -          -          0          0
  relax solutions  :       0.00          -          -          0          0
  pseudo solutions :       0.00          -          -          0          0
  strong branching :       0.00          -          -          0          0
  actconsdiving    :       0.00       0.00          0          0          0
  adaptivediving   :      66.86       0.00          2          0          0
  alns             :       0.19       0.00          1          0          0
  bound            :       0.00       0.00          0          0          0
  clique           :       0.21       0.00          1          0          0
  coefdiving       :       0.00       0.00          0          0          0
  completesol      :       0.00       0.00          0          0          0
  conflictdiving   :      97.43       0.00          2          0          0
  crossover        :       0.00       0.00          0          0          0
  dins             :       0.00       0.00          0          0          0
  distributiondivin:      81.50       0.00          2          0          0
  dps              :       0.00       0.00          0          0          0
  dualval          :       0.00       0.00          0          0          0
  farkasdiving     :     696.54       0.00          1          0          0
  feaspump         :      90.73       0.00          1          0          0
  fixandinfer      :       0.00       0.00          0          0          0
  fracdiving       :      38.53       0.00          2          0          0
  gins             :       0.00       0.00          0          0          0
  guideddiving     :       0.00       0.00          0          0          0
  indicator        :       0.00       0.00          0          0          0
  intdiving        :       0.00       0.00          0          0          0
  intshifting      :       0.00       0.00          0          0          0
  linesearchdiving :      14.72       0.00          1          0          0
  localbranching   :       0.00       0.00          0          0          0
  locks            :       0.05       0.00          1          0          0
  lpface           :       0.00       0.00          0          0          0
  mpec             :       0.00       0.00          0          0          0
  multistart       :       0.00       0.00          0          0          0
  mutation         :       0.00       0.00          0          0          0
  nlpdiving        :       0.00       0.00          0          0          0
  objpscostdiving  :      12.35       0.00          1          0          0
  octane           :       0.00       0.00          0          0          0
  ofins            :       0.00       0.00          0          0          0
  oneopt           :       0.00       0.00          0          0          0
  padm             :       0.00       0.00          0          0          0
  proximity        :       0.00       0.00          0          0          0
  pscostdiving     :     109.35       0.00          2          0          0
  randrounding     :       1.08       0.00         12          0          0
  rens             :       0.27       0.00          1          0          0
  reoptsols        :       0.00       0.00          0          0          0
  repair           :       0.00       0.00          0          0          0
  rins             :       0.00       0.00          0          0          0
  rootsoldiving    :      43.60       0.00          1          0          0
  rounding         :       0.45       0.00        138          0          0
  shiftandpropagate:       0.08       0.00          1          0          0
  shifting         :       0.68       0.00         56          0          0
  simplerounding   :       0.00       0.00          0          0          0
  subnlp           :       0.00       0.00          0          0          0
  trivial          :       0.01       0.00          2          0          0
  trivialnegation  :       0.00       0.00          0          0          0
  trustregion      :       0.00       0.00          0          0          0
  trysol           :       0.00       0.00          0          0          0
  twoopt           :       0.00       0.00          0          0          0
  undercover       :       0.00       0.00          0          0          0
  vbounds          :       0.17       0.00          1          0          0
  veclendiving     :      66.02       0.00          2          0          0
  zeroobj          :       0.00       0.00          0          0          0
  zirounding       :       0.28       0.00        127          0          0
  other solutions  :          -          -          -          0          -
LP                 :       Time      Calls Iterations  Iter/call   Iter/sec  Time-0-It Calls-0-It    ItLimit
  primal LP        :      33.72         16          0       0.00       0.00      33.72         16
  dual LP          :    3558.60        171    1224242    7201.42     344.02       1.76          1
  lex dual LP      :       0.00          0          0       0.00          -
  barrier LP       :       0.00          0          0       0.00          -       0.00          0
  resolve instable :       0.00          0          0       0.00          -
  diving/probing LP:    1317.18        139     360928    2596.60     274.02
  strong branching :    2058.23        830     742401     894.46     360.70          -          -       1336
    (at root node) :          -         21      21000    1000.00          -
  conflict analysis:       0.00          0          0       0.00          -
B&B Tree           :
  number of runs   :          1
  nodes            :        128 (127 internal, 1 leaves)
  feasible leaves  :          0
  infeas. leaves   :          0
  objective leaves :          0
  nodes (total)    :        128 (127 internal, 1 leaves)
  nodes left       :        128
  max depth        :         19
  max depth (total):         19
  backtracks       :         14 (10.9%)
  early backtracks :          0 (0.0%)
  nodes exc. ref.  :          0 (0.0%)
  delayed cutoffs  :          0
  repropagations   :          0 (0 domain reductions, 0 cutoffs)
  avg switch length:       2.34
  switching time   :      33.80
Root Node          :
  First LP value   : +1.40000000000000e+02
  First LP Iters   :       8620 (1257.36 Iter/sec)
  First LP Time    :       6.86
  Final Dual Bound : +1.40000000000000e+02
  Final Root Iters :     138101
  Root LP Estimate : +1.46276571757005e+02
Solution           :
  Solutions found  :          0 (0 improvements)
  Primal Bound     :          -
  Dual Bound       : +1.40000000000000e+02
  Gap              :   infinite
Integrals          :      Total       Avg%
  primal-dual      :  720001.09     100.00
  primal-ref       :          -          - (not evaluated)
  dual-ref         :          -          - (not evaluated)
written solution information to file <results/final_miplib_symretope_if_extended_generating_set_cpx_v802__settings_final_nopeek_norelabel_extend_norestarts__4__circ10-3.mps.gz.sol>
@04 1686673153
